7598320786396936297503,6,1,2,09,12,1,2,08,12,1,2,08,7,1,2,07,12,1,2,06,12,1,2,07,15,1,2,03,13,1,2,03,14,1,2,010,5,1,2,05,9,1,2,04,7,1,2,07,7,1,2,015,5,1,2,011,13,1,2,015,2,1,2,01,4,1,2,09,1,1,2,010,1,1,2,07,1,1,2,04,1,1,2,04,4,1,2,014,4,1,2,014,1,1,2,03,12,1,2,03,5,1,2,01,2,1,2,014,4,1,2,012,10,1,2,05,15,1,2,010,4,1,2,012,6,1,2,04,12,1,2,06,12,1,2,02,14,1,2,08,3,1,2,09,11,1,2,010,4,1,2,06,14,1,2,05,7,1,2,015,15,1,2,06,13,1,2,08,12,1,2,06,12,1,2,04,3,1,2,02,15,1,2,012,7,1,2,03,12,1,2,012,13,1,2,011,2,1,2,0